500
    1    18    18
    2    45    45
    3    19    19
    4    17    17
    5     5     5
    6    27    27
    7    26    26
    8    21    21
    9    15    15
   10    22    22
   11    14    14
   12    24    24
   13    28    28
   14    22    22
   15    18    18
   16    42    42
   17    10    10
   18     7     7
   19    21    21
   20    13    13
   21    10    10
   22    14    14
   23     8     8
   24    14    14
   25     3     3
   26    20    20
   27    21    21
   28    11    11
   29    17    17
   30     4     4
   31    41    41
   32    47    47
   33    22    22
   34    27    27
   35     7     7
   36    11    11
   37    24    24
   38     9     9
   39    49    49
   40     4     4
   41    14    14
   42    46    46
   43    28    28
   44    22    22
   45    47    47
   46    37    37
   47     7     7
   48    31    31
   49    19    19
   50    46    46
   51     7     7
   52     7     7
   53     1     1
   54    33    33
   55    26    26
   56    26    26
   57    10    10
   58    11    11
   59    46    46
   60     3     3
   61    30    30
   62    48    48
   63    42    42
   64    21    21
   65    46    46
   66    39    39
   67     8     8
   68     6     6
   69     3     3
   70    44    44
   71    26    26
   72    32    32
   73     5     5
   74    50    50
   75    47    47
   76    46    46
   77    29    29
   78     5     5
   79    47    47
   80    26    26
   81     2     2
   82    19    19
   83    20    20
   84    50    50
   85    15    15
   86    14    14
   87    12    12
   88    42    42
   89    32    32
   90    45    45
   91     3     3
   92    36    36
   93    40    40
   94     5     5
   95    22    22
   96    45    45
   97    50    50
   98    45    45
   99    23    23
  100    40    40
  101    37    37
  102     6     6
  103    23    23
  104    49    49
  105    16    16
  106     8     8
  107    49    49
  108    48    48
  109    37    37
  110    19    19
  111    48    48
  112    25    25
  113    30    30
  114    27    27
  115    15    15
  116    27    27
  117    21    21
  118    33    33
  119    13    13
  120    32    32
  121     5     5
  122    25    25
  123    31    31
  124    31    31
  125    34    34
  126    32    32
  127     9     9
  128    24    24
  129    42    42
  130    27    27
  131    45    45
  132    50    50
  133    11    11
  134    46    46
  135    29    29
  136     2     2
  137    37    37
  138    23    23
  139    40    40
  140     8     8
  141    10    10
  142    36    36
  143    40    40
  144    44    44
  145     5     5
  146    20    20
  147     6     6
  148    28    28
  149     8     8
  150    29    29
  151    27    27
  152    15    15
  153    33    33
  154    17    17
  155    18    18
  156    14    14
  157    25    25
  158    27    27
  159    33    33
  160    24    24
  161    42    42
  162    14    14
  163    24    24
  164     9     9
  165    33    33
  166    10    10
  167    12    12
  168     9     9
  169     6     6
  170    12    12
  171    46    46
  172    35    35
  173    50    50
  174    41    41
  175    15    15
  176    32    32
  177     9     9
  178    29    29
  179    38    38
  180    45    45
  181    21    21
  182     5     5
  183    15    15
  184    26    26
  185    49    49
  186     8     8
  187    14    14
  188    45    45
  189    13    13
  190    47    47
  191    48    48
  192    13    13
  193    28    28
  194    14    14
  195    49    49
  196    47    47
  197    43    43
  198    31    31
  199    17    17
  200    49    49
  201    34    34
  202    17    17
  203    39    39
  204    30    30
  205     9     9
  206    49    49
  207     3     3
  208    22    22
  209     6     6
  210    48    48
  211    15    15
  212     6     6
  213    38    38
  214    13    13
  215    21    21
  216     5     5
  217    31    31
  218    21    21
  219    14    14
  220    31    31
  221    45    45
  222    26    26
  223    34    34
  224    45    45
  225    34    34
  226    34    34
  227    28    28
  228    44    44
  229    50    50
  230    35    35
  231    41    41
  232     6     6
  233    20    20
  234    14    14
  235    40    40
  236    32    32
  237    36    36
  238     5     5
  239    29    29
  240     8     8
  241    22    22
  242    40    40
  243    37    37
  244    47    47
  245    26    26
  246    15    15
  247     9     9
  248    40    40
  249    32    32
  250    32    32
  251     1     1
  252     9     9
  253    28    28
  254    15    15
  255    30    30
  256    29    29
  257    17    17
  258    30    30
  259    22    22
  260    47    47
  261     4     4
  262    33    33
  263    24    24
  264    30    30
  265     7     7
  266     5     5
  267    27    27
  268    35    35
  269     5     5
  270    12    12
  271    35    35
  272    30    30
  273    20    20
  274    47    47
  275     9     9
  276    10    10
  277    50    50
  278    20    20
  279    21    21
  280    50    50
  281     6     6
  282    31    31
  283    17    17
  284    41    41
  285    10    10
  286    22    22
  287    10    10
  288     8     8
  289    24    24
  290    11    11
  291     9     9
  292     7     7
  293    43    43
  294    32    32
  295    24    24
  296    48    48
  297     3     3
  298    43    43
  299     3     3
  300    41    41
  301     2     2
  302    45    45
  303     1     1
  304    23    23
  305    12    12
  306    22    22
  307    49    49
  308    16    16
  309    46    46
  310    25    25
  311    29    29
  312    27    27
  313    11    11
  314    28    28
  315    18    18
  316     2     2
  317     2     2
  318     6     6
  319    18    18
  320    26    26
  321     2     2
  322     7     7
  323    49    49
  324    18    18
  325    49    49
  326     1     1
  327    14    14
  328    10    10
  329    48    48
  330    43    43
  331    31    31
  332    12    12
  333    27    27
  334    18    18
  335    48    48
  336    19    19
  337    46    46
  338    27    27
  339    34    34
  340     2     2
  341    27    27
  342    47    47
  343     8     8
  344     7     7
  345    33    33
  346    31    31
  347    36    36
  348     9     9
  349    21    21
  350    16    16
  351    15    15
  352    33    33
  353    37    37
  354    48    48
  355    46    46
  356    23    23
  357    31    31
  358    37    37
  359    26    26
  360    23    23
  361    50    50
  362     8     8
  363    27    27
  364    36    36
  365    15    15
  366    32    32
  367    43    43
  368    30    30
  369    21    21
  370    38    38
  371    28    28
  372    10    10
  373     3     3
  374    46    46
  375    38    38
  376    21    21
  377    28    28
  378    26    26
  379    20    20
  380    36    36
  381    23    23
  382    11    11
  383    25    25
  384     2     2
  385    13    13
  386    14    14
  387    29    29
  388    45    45
  389    10    10
  390    41    41
  391    40    40
  392    18    18
  393     4     4
  394    17    17
  395    36    36
  396     1     1
  397    11    11
  398    31    31
  399     2     2
  400    31    31
  401    37    37
  402    17    17
  403    11    11
  404    18    18
  405    35    35
  406    39    39
  407     1     1
  408    45    45
  409    39    39
  410    17    17
  411     3     3
  412    23    23
  413    49    49
  414    34    34
  415    38    38
  416    46    46
  417     6     6
  418    27    27
  419     8     8
  420    20    20
  421    43    43
  422    22    22
  423    14    14
  424    10    10
  425    35    35
  426    10    10
  427    13    13
  428    20    20
  429    38    38
  430    26    26
  431    10    10
  432    31    31
  433    37    37
  434    34    34
  435    46    46
  436    30    30
  437    34    34
  438    18    18
  439    39    39
  440    32    32
  441    16    16
  442    36    36
  443    15    15
  444     9     9
  445    34    34
  446    18    18
  447     4     4
  448    15    15
  449    48    48
  450     3     3
  451    48    48
  452     2     2
  453    38    38
  454    15    15
  455    36    36
  456    24    24
  457    36    36
  458    37    37
  459    25    25
  460     9     9
  461    22    22
  462    17    17
  463    27    27
  464    12    12
  465    15    15
  466    47    47
  467     7     7
  468    46    46
  469     6     6
  470    26    26
  471     2     2
  472     9     9
  473     2     2
  474    33    33
  475    38    38
  476     3     3
  477     3     3
  478    26    26
  479     1     1
  480    19    19
  481    32    32
  482    30    30
  483    38    38
  484     6     6
  485    26    26
  486    17    17
  487    32    32
  488     9     9
  489    27    27
  490    18    18
  491    41    41
  492    29    29
  493    30    30
  494    23    23
  495    14    14
  496     6     6
  497    19    19
  498     8     8
  499    39    39
  500    28    28
6173
